c Sudoku solution
p cnf 729 0
111 0
142 0
158 0
175 0
189 0
245 0
266 0
291 0
317 0
369 0
392 0
427 0
444 0
468 0
481 0
523 0
584 0
632 0
759 0
825 0
335 0
833 0
213 0
222 0
239 0
328 0
436 0
134 0
126 0
964 0
999 0
819 0
921 0
724 0
614 0
415 0
518 0
531 0
629 0
549 0
479 0
572 0
493 0
452 0
197 0
288 0
274 0
163 0
341 0
354 0
257 0
894 0
567 0
851 0
862 0
765 0
771 0
985 0
782 0
973 0
716 0
912 0
743 0
956 0
798 0
737 0
938 0
848 0
947 0
646 0
653 0
661 0
555 0
596 0
376 0
383 0
877 0
886 0
678 0
687 0
695 0
